benchmarks/VRPTW/TSPTW/ins/n100w80.005.txt


!! n100w80.005    80.70 768


CUST NO.   XCOORD.   YCOORD.    DEMAND   READY TIME   DUE DATE   SERVICE TIME


    1      14.00      15.00       0.00       0.00     847.00       0.00
    2       7.00      24.00       0.00     226.00     382.00       0.00
    3      15.00      27.00       0.00       0.00      69.00       0.00
    4       5.00      30.00       0.00     538.00     558.00       0.00
    5      45.00      26.00       0.00      64.00     169.00       0.00
    6      44.00      43.00       0.00     132.00     230.00       0.00
    7      16.00      20.00       0.00       0.00      34.00       0.00
    8      39.00      28.00       0.00     595.00     637.00       0.00
    9      48.00      31.00       0.00     102.00     173.00       0.00
   10      39.00      32.00       0.00      54.00     131.00       0.00
   11      17.00       1.00       0.00     325.00     377.00       0.00
   12      38.00      40.00       0.00     168.00     224.00       0.00
   13       3.00      48.00       0.00     191.00     280.00       0.00
   14       2.00      20.00       0.00     496.00     615.00       0.00
   15      10.00      12.00       0.00     295.00     380.00       0.00
   16      44.00      31.00       0.00     116.00     139.00       0.00
   17       5.00      42.00       0.00     207.00     290.00       0.00
   18       8.00      11.00       0.00     266.00     345.00       0.00
   19      49.00       1.00       0.00     408.00     511.00       0.00
   20      47.00      47.00       0.00     148.00     189.00       0.00
   21      26.00      48.00       0.00     153.00     291.00       0.00
   22      18.00      33.00       0.00       0.00      83.00       0.00
   23      30.00      26.00       0.00      37.00     114.00       0.00
   24       5.00      15.00       0.00     293.00     388.00       0.00
   25      21.00       7.00       0.00     318.00     427.00       0.00
   26       8.00      47.00       0.00     196.00     262.00       0.00
   27      18.00      30.00       0.00       0.00      78.00       0.00
   28      15.00      20.00       0.00     559.00     618.00       0.00
   29      24.00      29.00       0.00      22.00     149.00       0.00
   30      29.00      32.00       0.00      45.00     107.00       0.00
   31      19.00      36.00       0.00      33.00      67.00       0.00
   32      27.00      38.00       0.00     185.00     231.00       0.00
   33      44.00      15.00       0.00     716.00     817.00       0.00
   34      21.00      36.00       0.00       0.00      84.00       0.00
   35      40.00       3.00       0.00     390.00     506.00       0.00
   36      47.00       7.00       0.00     387.00     516.00       0.00
   37      44.00      10.00       0.00     610.00     707.00       0.00
   38       9.00      43.00       0.00     211.00     316.00       0.00
   39       2.00      14.00       0.00     510.00     603.00       0.00
   40      39.00      44.00       0.00     186.00     276.00       0.00
   41      27.00       8.00       0.00     372.00     488.00       0.00
   42       9.00       9.00       0.00     312.00     339.00       0.00
   43      36.00      16.00       0.00     332.00     449.00       0.00
   44      17.00       2.00       0.00     297.00     362.00       0.00
   45       5.00      45.00       0.00     211.00     250.00       0.00
   46      11.00      27.00       0.00      10.00      73.00       0.00
   47      31.00      46.00       0.00     120.00     266.00       0.00
   48      34.00      32.00       0.00      38.00     126.00       0.00
   49      20.00      44.00       0.00     571.00     655.00       0.00
   50      14.00      43.00       0.00     214.00     241.00       0.00
   51      21.00      12.00       0.00     436.00     517.00       0.00
   52      11.00      19.00       0.00     263.00     319.00       0.00
   53       0.00      41.00       0.00     222.00     293.00       0.00
   54       8.00       7.00       0.00     314.00     383.00       0.00
   55      23.00       0.00       0.00     343.00     437.00       0.00
   56      13.00      32.00       0.00       0.00      99.00       0.00
   57      17.00      21.00       0.00       0.00      23.00       0.00
   58      42.00      33.00       0.00      57.00     166.00       0.00
   59       4.00       1.00       0.00     292.00     375.00       0.00
   60      18.00       4.00       0.00     424.00     553.00       0.00
   61      33.00      28.00       0.00     101.00     160.00       0.00
   62      41.00      33.00       0.00     126.00     141.00       0.00
   63      10.00      48.00       0.00     229.00     263.00       0.00
   64      28.00      15.00       0.00     320.00     444.00       0.00
   65      46.00      42.00       0.00     100.00     176.00       0.00
   66      16.00      14.00       0.00     472.00     585.00       0.00
   67      25.00      32.00       0.00      44.00     127.00       0.00
   68      28.00       9.00       0.00     363.00     446.00       0.00
   69      18.00      26.00       0.00       0.00      56.00       0.00
   70      13.00       2.00       0.00     310.00     361.00       0.00
   71      30.00      31.00       0.00      46.00     160.00       0.00
   72      31.00      17.00       0.00     344.00     475.00       0.00
   73      15.00      37.00       0.00      16.00     108.00       0.00
   74      14.00      25.00       0.00     651.00     719.00       0.00
   75       4.00       7.00       0.00     275.00     378.00       0.00
   76      24.00       9.00       0.00     305.00     378.00       0.00
   77      19.00      15.00       0.00     445.00     506.00       0.00
   78      27.00      24.00       0.00      35.00     167.00       0.00
   79      20.00      29.00       0.00       0.00      67.00       0.00
   80       9.00       6.00       0.00     515.00     575.00       0.00
   81       6.00      29.00       0.00     250.00     336.00       0.00
   82      16.00      28.00       0.00      11.00      65.00       0.00
   83      32.00       2.00       0.00     408.00     498.00       0.00
   84      26.00      20.00       0.00     332.00     403.00       0.00
   85      46.00       3.00       0.00     396.00     482.00       0.00
   86      36.00      46.00       0.00     181.00     210.00       0.00
   87      10.00      31.00       0.00       0.00      60.00       0.00
   88      36.00       2.00       0.00     440.00     499.00       0.00
   89      17.00       4.00       0.00     322.00     400.00       0.00
   90      46.00      31.00       0.00      82.00     145.00       0.00
   91      15.00      36.00       0.00      20.00     110.00       0.00
   92      33.00      19.00       0.00     354.00     475.00       0.00
   93      47.00      47.00       0.00     102.00     230.00       0.00
   94      33.00      14.00       0.00     466.00     541.00       0.00
   95      19.00       2.00       0.00     285.00     419.00       0.00
   96      11.00      43.00       0.00     203.00     322.00       0.00
   97       9.00      28.00       0.00     261.00     347.00       0.00
   98      16.00       2.00       0.00     306.00     399.00       0.00
   99      20.00      38.00       0.00       0.00      79.00       0.00
  100      19.00      11.00       0.00     492.00     538.00       0.00
  101       4.00      17.00       0.00     689.00     740.00       0.00
  999       0.00       0.00       0.00       0.00       0.00       0.00
