benchmarks/VRPTW/TSPTW/solution/n100w80.005.txt.solution
1 7 57 69 79 27 82 3 46 87 56 91 73 22 31 99 34 67 29 78 23 61 30 71 48 10 62 58 16 5 9 90 65 93 20 6 12 40 86 47 21 32 50 96 38 63 26 13 45 17 53 81 97 2 52 24 15 18 42 54 75 59 70 98 11 44 89 95 55 25 76 41 68 64 84 72 92 43 36 19 85 35 88 83 94 51 77 66 100 60 80 39 14 4 28 37 8 49 74 101 33 
603
